% seed = 6407504

mint = 48;
% maxt = 88;

nActs = 22;
dur = [0,2,2,3,6,10,5,2,1,4,4,3,6,10,4,4,4,1,9,7,1,0];

nSkills = 4;
sreq = [| 0,0,0,0,
	| 0,0,2,1,
	| 2,0,1,0,
	| 3,3,0,0,
	| 0,3,3,0,
	| 3,0,0,2,
	| 2,0,0,1,
	| 0,3,0,1,
	| 2,0,2,0,
	| 0,1,3,0,
	| 2,1,0,0,
	| 0,1,0,2,
	| 0,3,0,3,
	| 0,3,3,0,
	| 0,0,3,1,
	| 0,1,2,0,
	| 0,1,0,2,
	| 2,0,0,1,
	| 0,1,3,0,
	| 2,1,0,0,
	| 2,0,2,0,
	| 0,0,0,0, |];

nResources = 13;
mastery = [| false,false,true,true,
	| false,true,true,false,
	| false,true,true,true,
	| true,true,true,false,
	| true,false,true,false,
	| true,false,false,false,
	| false,false,false,true,
	| true,true,false,false,
	| true,true,false,true,
	| false,true,true,true,
	| true,true,false,true,
	| true,false,false,false,
	| false,false,true,true, |];

nPrecs = 37;
pred = [1,1,1,2,2,2,3,3,3,4,4,4,5,6,7,7,8,8,9,10,10,11,12,13,14,14,15,15,16,16,17,17,17,18,19,20,21];
succ = [2,3,4,11,12,13,11,5,14,10,7,8,6,10,9,11,19,21,18,12,15,21,14,17,20,16,20,16,18,19,18,19,20,21,22,22,22];

nUnrels = 90;
unpred = [2,2,2,2,2,2,2,2,2,3,3,3,3,3,3,4,4,4,4,5,5,5,5,5,5,6,6,6,6,6,6,7,7,7,7,7,7,7,7,7,7,8,8,8,8,8,8,8,8,8,8,8,9,9,9,9,9,9,9,9,9,9,10,10,10,11,11,11,11,11,11,11,11,11,12,12,12,13,13,13,14,14,15,16,16,18,18,19,19,20];
unsucc = [3,4,5,6,7,8,9,10,15,4,7,8,9,13,17,5,6,13,17,7,8,9,11,13,17,7,8,9,11,13,17,8,10,12,13,14,15,16,17,19,20,9,10,11,12,13,14,15,16,17,18,20,10,11,12,13,14,15,16,17,19,20,11,13,17,12,13,14,15,16,17,18,19,20,13,15,17,14,15,16,15,17,17,17,20,19,20,20,21,21];

USEFUL_RES = [{},
	{1,2,3,4,5,7,9,10,11,13},
	{1,2,3,4,5,6,8,9,10,11,12,13},
	{2,3,4,5,6,8,9,10,11,12},
	{1,2,3,4,5,8,9,10,11,13},
	{1,3,4,5,6,7,8,9,10,11,12,13},
	{1,3,4,5,6,7,8,9,10,11,12,13},
	{1,2,3,4,7,8,9,10,11,13},
	{1,2,3,4,5,6,8,9,10,11,12,13},
	{1,2,3,4,5,8,9,10,11,13},
	{2,3,4,5,6,8,9,10,11,12},
	{1,2,3,4,7,8,9,10,11,13},
	{1,2,3,4,7,8,9,10,11,13},
	{1,2,3,4,5,8,9,10,11,13},
	{1,2,3,4,5,7,9,10,11,13},
	{1,2,3,4,5,8,9,10,11,13},
	{1,2,3,4,7,8,9,10,11,13},
	{1,3,4,5,6,7,8,9,10,11,12,13},
	{1,2,3,4,5,8,9,10,11,13},
	{2,3,4,5,6,8,9,10,11,12},
	{1,2,3,4,5,6,8,9,10,11,12,13},
	{}];

POTENTIAL_ACT = [{2,3,5,6,7,8,9,10,12,13,14,15,16,17,18,19,21},
	{2,3,4,5,8,9,10,11,12,13,14,15,16,17,19,20,21},
	{2,3,4,5,6,7,8,9,10,11,12,13,14,15,16,17,18,19,20,21},
	{2,3,4,5,6,7,8,9,10,11,12,13,14,15,16,17,18,19,20,21},
	{2,3,4,5,6,7,9,10,11,14,15,16,18,19,20,21},
	{3,4,6,7,9,11,18,20,21},
	{2,6,7,8,12,13,15,17,18},
	{3,4,5,6,7,8,9,10,11,12,13,14,16,17,18,19,20,21},
	{2,3,4,5,6,7,8,9,10,11,12,13,14,15,16,17,18,19,20,21},
	{2,3,4,5,6,7,8,9,10,11,12,13,14,15,16,17,18,19,20,21},
	{2,3,4,5,6,7,8,9,10,11,12,13,14,15,16,17,18,19,20,21},
	{3,4,6,7,9,11,18,20,21},
	{2,3,5,6,7,8,9,10,12,13,14,15,16,17,18,19,21}];
